nN = 10;
nR = 50;
nH = 1;

a = [[12, 13, 24, 19, 24, 24, 15, 13, 11, 20, 11, 11, 23, 20, 20, 10, 16, 14, 16, 24, 22, 22, 20, 12, 22, 14, 15, 23, 24, 24, 13, 10, 23, 23, 24, 23, 15, 24, 11, 22, 11, 16, 17, 23, 24, 15, 19, 20, 12, 25], [19, 20, 16, 18, 20, 13, 17, 22, 13, 24, 17, 22, 24, 20, 19, 18, 11, 18, 18, 16, 12, 11, 23, 17, 10, 13, 14, 12, 21, 24, 18, 24, 16, 20, 12, 13, 20, 19, 23, 16, 24, 13, 25, 12, 21, 19, 10, 22, 18, 23], [15, 23, 20, 16, 18, 19, 23, 17, 14, 16, 24, 19, 20, 23, 22, 24, 19, 19, 24, 11, 19, 23, 15, 15, 10, 12, 11, 17, 11, 22, 21, 23, 10, 19, 18, 25, 21, 22, 16, 25, 18, 16, 11, 11, 14, 11, 15, 23, 18, 11], [14, 20, 14, 21, 19, 22, 18, 10, 23, 16, 23, 22, 17, 15, 12, 16, 13, 21, 18, 23, 22, 20, 18, 16, 20, 15, 16, 19, 13, 22, 22, 20, 11, 19, 25, 12, 21, 23, 18, 16, 21, 19, 17, 16, 25, 12, 14, 20, 12, 13], [20, 24, 17, 14, 13, 25, 20, 15, 22, 12, 16, 12, 20, 10, 17, 21, 14, 13, 16, 13, 22, 16, 21, 19, 16, 12, 19, 13, 25, 13, 19, 16, 25, 11, 13, 25, 11, 22, 15, 11, 13, 17, 23, 13, 16, 12, 18, 13, 21, 22], [24, 14, 20, 11, 17, 13, 20, 14, 22, 12, 22, 14, 16, 10, 22, 11, 23, 22, 18, 14, 19, 20, 20, 25, 16, 18, 11, 19, 18, 14, 10, 11, 11, 11, 25, 23, 18, 15, 18, 15, 18, 12, 11, 19, 15, 20, 17, 24, 20, 11], [14, 21, 19, 23, 21, 15, 19, 17, 23, 17, 15, 11, 15, 14, 14, 16, 21, 19, 15, 23, 15, 24, 16, 25, 11, 16, 13, 13, 25, 16, 24, 16, 18, 15, 17, 16, 22, 23, 16, 17, 12, 14, 12, 15, 17, 14, 21, 23, 20, 21], [21, 22, 23, 23, 14, 21, 11, 24, 18, 23, 24, 13, 24, 21, 12, 12, 18, 22, 25, 12, 24, 24, 18, 21, 19, 22, 20, 23, 12, 20, 24, 24, 12, 11, 15, 19, 17, 14, 17, 22, 15, 24, 16, 23, 11, 21, 24, 25, 23, 23], [22, 24, 14, 16, 22, 21, 18, 25, 20, 17, 19, 11, 21, 19, 24, 13, 22, 15, 18, 25, 21, 17, 18, 25, 19, 17, 20, 10, 11, 20, 24, 11, 15, 25, 18, 24, 14, 25, 25, 23, 14, 12, 12, 21, 16, 23, 16, 24, 12, 13], [16, 11, 12, 20, 22, 16, 25, 17, 17, 25, 24, 15, 19, 24, 16, 17, 10, 24, 16, 13, 20, 16, 23, 20, 11, 22, 22, 19, 21, 14, 17, 11, 11, 23, 11, 17, 23, 15, 16, 13, 14, 15, 20, 20, 20, 10, 23, 25, 24, 18]];
c = [[[0, 0, 0, 0, 0, 0, 0, 0, 0, 0, 0, 0, 0, 0, 0, 0, 0, 0, 0, 0, 0, 0, 0, 0, 0, 0, 0, 0, 0, 0, 0, 0, 0, 0, 0, 0, 0, 0, 0, 0, 0, 0, 0, 0, 0, 0, 0, 0, 0, 0], [40, 47, 50, 35, 39, 30, 45, 42, 38, 36, 47, 39, 30, 41, 35, 43, 37, 48, 36, 44, 49, 44, 34, 40, 40, 49, 32, 41, 41, 41, 43, 44, 35, 41, 49, 31, 40, 37, 38, 30, 44, 41, 31, 49, 42, 45, 41, 42, 34, 32], [40, 41, 36, 45, 42, 43, 43, 34, 45, 49, 40, 47, 41, 37, 47, 46, 50, 36, 47, 47, 49, 48, 35, 48, 34, 46, 44, 33, 33, 47, 40, 46, 43, 47, 47, 41, 39, 43, 35, 43, 38, 41, 40, 30, 49, 47, 47, 44, 49, 32], [35, 42, 30, 37, 34, 44, 38, 38, 49, 44, 46, 40, 50, 37, 30, 32, 44, 45, 38, 41, 40, 43, 50, 45, 48, 50, 39, 42, 41, 42, 45, 30, 31, 44, 41, 45, 38, 42, 37, 38, 37, 38, 36, 32, 34, 39, 37, 43, 33, 44], [40, 45, 35, 45, 47, 30, 38, 32, 38, 43, 45, 45, 46, 42, 41, 30, 36, 48, 35, 36, 48, 30, 37, 36, 35, 47, 31, 42, 49, 42, 50, 49, 32, 49, 31, 44, 37, 41, 46, 50, 34, 30, 37, 44, 40, 50, 32, 39, 37, 39], [37, 37, 38, 48, 47, 41, 39, 30, 33, 47, 33, 50, 32, 50, 39, 47, 49, 46, 39, 33, 38, 30, 33, 33, 32, 41, 50, 50, 33, 32, 35, 43, 48, 39, 35, 43, 40, 47, 36, 32, 33, 34, 36, 38, 33, 45, 44, 36, 43, 50], [37, 30, 46, 47, 46, 35, 44, 38, 42, 39, 49, 30, 40, 44, 39, 32, 41, 47, 44, 42, 38, 48, 32, 36, 38, 48, 37, 32, 41, 37, 48, 32, 36, 46, 34, 37, 47, 32, 31, 30, 42, 41, 41, 37, 39, 31, 31, 48, 44, 44], [30, 41, 40, 32, 47, 43, 48, 41, 40, 40, 35, 47, 48, 30, 44, 33, 34, 39, 47, 31, 34, 39, 44, 31, 34, 42, 41, 38, 46, 32, 48, 46, 37, 30, 46, 32, 45, 33, 31, 36, 35, 41, 46, 47, 43, 38, 30, 44, 48, 44], [34, 38, 35, 43, 45, 48, 45, 33, 37, 50, 33, 39, 45, 46, 48, 33, 37, 34, 46, 41, 46, 35, 48, 38, 48, 49, 45, 44, 37, 41, 41, 42, 32, 50, 41, 50, 34, 30, 32, 47, 35, 35, 48, 32, 43, 32, 46, 40, 48, 49], [40, 38, 34, 35, 30, 50, 35, 41, 46, 44, 39, 43, 41, 48, 38, 41, 44, 31, 43, 31, 34, 48, 38, 40, 43, 35, 48, 38, 30, 36, 39, 41, 34, 34, 48, 50, 38, 48, 44, 38, 40, 39, 43, 37, 47, 35, 38, 41, 35, 39]], [[0, 0, 0, 0, 0, 0, 0, 0, 0, 0, 0, 0, 0, 0, 0, 0, 0, 0, 0, 0, 0, 0, 0, 0, 0, 0, 0, 0, 0, 0, 0, 0, 0, 0, 0, 0, 0, 0, 0, 0, 0, 0, 0, 0, 0, 0, 0, 0, 0, 0], [0, 0, 0, 0, 0, 0, 0, 0, 0, 0, 0, 0, 0, 0, 0, 0, 0, 0, 0, 0, 0, 0, 0, 0, 0, 0, 0, 0, 0, 0, 0, 0, 0, 0, 0, 0, 0, 0, 0, 0, 0, 0, 0, 0, 0, 0, 0, 0, 0, 0], [32, 46, 49, 41, 48, 42, 47, 30, 41, 43, 39, 44, 38, 45, 40, 44, 40, 44, 44, 48, 50, 50, 31, 40, 31, 32, 36, 47, 32, 39, 45, 42, 39, 31, 45, 41, 41, 40, 45, 42, 40, 40, 36, 30, 39, 45, 41, 41, 37, 44], [31, 34, 40, 35, 35, 35, 40, 39, 47, 45, 41, 36, 32, 47, 31, 45, 31, 40, 34, 46, 31, 31, 47, 50, 39, 32, 39, 38, 40, 44, 32, 34, 30, 33, 34, 39, 31, 31, 42, 32, 31, 30, 30, 45, 34, 50, 42, 41, 40, 47], [33, 46, 45, 48, 50, 33, 31, 39, 36, 36, 40, 40, 39, 30, 49, 39, 48, 47, 42, 34, 46, 39, 37, 50, 42, 31, 31, 37, 33, 41, 30, 33, 33, 43, 40, 31, 50, 48, 44, 31, 48, 41, 32, 37, 50, 43, 35, 49, 34, 45], [41, 31, 39, 31, 38, 45, 40, 45, 42, 34, 47, 30, 36, 32, 38, 35, 47, 47, 50, 49, 48, 42, 38, 43, 43, 50, 45, 36, 33, 41, 33, 42, 35, 36, 50, 35, 41, 37, 43, 45, 34, 46, 33, 48, 49, 47, 45, 44, 48, 35], [39, 43, 45, 49, 38, 47, 50, 37, 36, 49, 30, 46, 48, 38, 37, 40, 31, 32, 50, 33, 48, 38, 50, 48, 49, 36, 43, 33, 31, 44, 44, 41, 31, 49, 31, 50, 50, 30, 40, 32, 33, 44, 41, 43, 50, 41, 37, 32, 33, 41], [47, 30, 31, 49, 41, 45, 37, 30, 33, 45, 32, 45, 38, 39, 37, 45, 45, 41, 38, 45, 43, 32, 48, 40, 46, 46, 45, 38, 46, 35, 32, 42, 45, 48, 44, 48, 35, 30, 34, 40, 41, 49, 47, 44, 30, 49, 31, 43, 30, 40], [41, 38, 45, 43, 38, 41, 46, 47, 49, 46, 47, 41, 42, 50, 49, 36, 49, 47, 47, 33, 35, 50, 44, 32, 33, 43, 42, 37, 32, 45, 47, 39, 47, 37, 36, 30, 42, 31, 47, 38, 32, 39, 49, 48, 49, 42, 33, 49, 34, 32], [47, 42, 41, 47, 39, 45, 48, 32, 36, 45, 43, 32, 38, 34, 44, 34, 35, 35, 33, 35, 39, 47, 40, 36, 44, 35, 34, 47, 38, 30, 31, 48, 36, 42, 48, 42, 38, 49, 44, 50, 40, 37, 33, 39, 33, 46, 46, 36, 43, 37]], [[0, 0, 0, 0, 0, 0, 0, 0, 0, 0, 0, 0, 0, 0, 0, 0, 0, 0, 0, 0, 0, 0, 0, 0, 0, 0, 0, 0, 0, 0, 0, 0, 0, 0, 0, 0, 0, 0, 0, 0, 0, 0, 0, 0, 0, 0, 0, 0, 0, 0], [0, 0, 0, 0, 0, 0, 0, 0, 0, 0, 0, 0, 0, 0, 0, 0, 0, 0, 0, 0, 0, 0, 0, 0, 0, 0, 0, 0, 0, 0, 0, 0, 0, 0, 0, 0, 0, 0, 0, 0, 0, 0, 0, 0, 0, 0, 0, 0, 0, 0], [0, 0, 0, 0, 0, 0, 0, 0, 0, 0, 0, 0, 0, 0, 0, 0, 0, 0, 0, 0, 0, 0, 0, 0, 0, 0, 0, 0, 0, 0, 0, 0, 0, 0, 0, 0, 0, 0, 0, 0, 0, 0, 0, 0, 0, 0, 0, 0, 0, 0], [31, 49, 49, 35, 36, 39, 42, 39, 32, 34, 31, 33, 50, 48, 33, 41, 48, 37, 50, 43, 34, 46, 50, 48, 48, 44, 31, 30, 49, 32, 47, 39, 42, 37, 49, 37, 50, 34, 49, 34, 40, 31, 38, 44, 41, 49, 36, 48, 48, 41], [32, 49, 38, 31, 41, 45, 31, 36, 49, 30, 33, 47, 43, 39, 38, 48, 42, 40, 44, 46, 32, 32, 35, 36, 48, 49, 35, 32, 50, 38, 34, 36, 43, 33, 35, 33, 40, 43, 34, 40, 33, 34, 30, 45, 41, 42, 32, 30, 40, 35], [34, 42, 37, 35, 41, 50, 44, 34, 47, 33, 33, 36, 44, 45, 46, 35, 38, 31, 36, 48, 32, 43, 31, 44, 49, 36, 50, 37, 40, 31, 41, 33, 45, 46, 32, 41, 43, 37, 37, 42, 31, 35, 47, 32, 49, 36, 30, 35, 39, 35], [35, 35, 44, 33, 49, 50, 33, 31, 43, 41, 37, 37, 42, 35, 35, 33, 38, 38, 47, 30, 41, 30, 50, 41, 38, 43, 41, 30, 44, 33, 44, 37, 33, 37, 32, 30, 40, 40, 31, 40, 39, 46, 35, 42, 38, 35, 47, 32, 45, 49], [38, 35, 50, 30, 37, 46, 40, 34, 39, 37, 30, 48, 49, 43, 42, 33, 45, 31, 50, 33, 34, 43, 45, 50, 37, 37, 33, 41, 48, 35, 33, 39, 42, 33, 49, 34, 47, 40, 34, 38, 39, 46, 36, 40, 45, 36, 48, 46, 38, 44], [45, 34, 47, 35, 31, 39, 46, 30, 37, 31, 48, 32, 43, 40, 44, 47, 36, 37, 31, 45, 50, 50, 33, 45, 50, 38, 49, 39, 45, 40, 50, 44, 39, 32, 39, 36, 48, 30, 39, 38, 32, 50, 43, 49, 40, 43, 39, 37, 30, 44], [43, 35, 44, 35, 48, 44, 43, 44, 44, 30, 42, 46, 33, 34, 35, 50, 41, 37, 48, 40, 40, 32, 35, 42, 35, 36, 47, 32, 40, 48, 35, 32, 30, 40, 43, 46, 44, 34, 31, 30, 32, 44, 48, 47, 32, 45, 42, 48, 39, 47]], [[0, 0, 0, 0, 0, 0, 0, 0, 0, 0, 0, 0, 0, 0, 0, 0, 0, 0, 0, 0, 0, 0, 0, 0, 0, 0, 0, 0, 0, 0, 0, 0, 0, 0, 0, 0, 0, 0, 0, 0, 0, 0, 0, 0, 0, 0, 0, 0, 0, 0], [0, 0, 0, 0, 0, 0, 0, 0, 0, 0, 0, 0, 0, 0, 0, 0, 0, 0, 0, 0, 0, 0, 0, 0, 0, 0, 0, 0, 0, 0, 0, 0, 0, 0, 0, 0, 0, 0, 0, 0, 0, 0, 0, 0, 0, 0, 0, 0, 0, 0], [0, 0, 0, 0, 0, 0, 0, 0, 0, 0, 0, 0, 0, 0, 0, 0, 0, 0, 0, 0, 0, 0, 0, 0, 0, 0, 0, 0, 0, 0, 0, 0, 0, 0, 0, 0, 0, 0, 0, 0, 0, 0, 0, 0, 0, 0, 0, 0, 0, 0], [0, 0, 0, 0, 0, 0, 0, 0, 0, 0, 0, 0, 0, 0, 0, 0, 0, 0, 0, 0, 0, 0, 0, 0, 0, 0, 0, 0, 0, 0, 0, 0, 0, 0, 0, 0, 0, 0, 0, 0, 0, 0, 0, 0, 0, 0, 0, 0, 0, 0], [45, 35, 41, 49, 43, 32, 46, 31, 31, 49, 46, 34, 39, 43, 47, 30, 30, 49, 39, 39, 46, 39, 37, 42, 31, 31, 32, 46, 37, 49, 48, 30, 34, 42, 40, 42, 50, 50, 42, 30, 46, 49, 41, 45, 39, 38, 35, 41, 34, 38], [38, 38, 37, 42, 40, 48, 34, 33, 30, 45, 31, 43, 30, 48, 37, 37, 37, 35, 37, 47, 44, 34, 49, 34, 32, 38, 32, 37, 41, 32, 33, 48, 36, 47, 50, 50, 46, 46, 37, 46, 30, 33, 35, 40, 32, 36, 50, 30, 37, 45], [38, 39, 37, 31, 49, 33, 50, 39, 43, 43, 45, 45, 49, 41, 42, 35, 36, 34, 36, 42, 47, 44, 35, 36, 42, 44, 39, 42, 32, 30, 39, 37, 46, 44, 39, 41, 37, 50, 41, 43, 31, 30, 31, 46, 31, 49, 40, 38, 32, 42], [41, 40, 38, 38, 33, 36, 41, 46, 50, 43, 44, 44, 44, 47, 33, 47, 44, 44, 36, 43, 44, 42, 44, 49, 49, 44, 39, 48, 50, 34, 46, 40, 35, 43, 48, 35, 36, 34, 49, 41, 50, 45, 50, 40, 33, 30, 34, 33, 49, 34], [31, 47, 43, 39, 45, 49, 34, 33, 38, 48, 42, 44, 30, 47, 45, 31, 36, 49, 33, 46, 41, 43, 48, 38, 42, 48, 34, 48, 37, 32, 35, 42, 47, 39, 42, 47, 47, 41, 48, 38, 40, 45, 42, 50, 37, 45, 39, 47, 48, 31], [30, 45, 49, 38, 44, 46, 37, 48, 34, 37, 48, 40, 45, 48, 46, 48, 37, 45, 41, 32, 42, 40, 38, 31, 33, 36, 50, 40, 42, 48, 40, 42, 49, 32, 42, 48, 34, 47, 44, 50, 38, 50, 37, 30, 34, 41, 39, 40, 30, 43]], [[0, 0, 0, 0, 0, 0, 0, 0, 0, 0, 0, 0, 0, 0, 0, 0, 0, 0, 0, 0, 0, 0, 0, 0, 0, 0, 0, 0, 0, 0, 0, 0, 0, 0, 0, 0, 0, 0, 0, 0, 0, 0, 0, 0, 0, 0, 0, 0, 0, 0], [0, 0, 0, 0, 0, 0, 0, 0, 0, 0, 0, 0, 0, 0, 0, 0, 0, 0, 0, 0, 0, 0, 0, 0, 0, 0, 0, 0, 0, 0, 0, 0, 0, 0, 0, 0, 0, 0, 0, 0, 0, 0, 0, 0, 0, 0, 0, 0, 0, 0], [0, 0, 0, 0, 0, 0, 0, 0, 0, 0, 0, 0, 0, 0, 0, 0, 0, 0, 0, 0, 0, 0, 0, 0, 0, 0, 0, 0, 0, 0, 0, 0, 0, 0, 0, 0, 0, 0, 0, 0, 0, 0, 0, 0, 0, 0, 0, 0, 0, 0], [0, 0, 0, 0, 0, 0, 0, 0, 0, 0, 0, 0, 0, 0, 0, 0, 0, 0, 0, 0, 0, 0, 0, 0, 0, 0, 0, 0, 0, 0, 0, 0, 0, 0, 0, 0, 0, 0, 0, 0, 0, 0, 0, 0, 0, 0, 0, 0, 0, 0], [0, 0, 0, 0, 0, 0, 0, 0, 0, 0, 0, 0, 0, 0, 0, 0, 0, 0, 0, 0, 0, 0, 0, 0, 0, 0, 0, 0, 0, 0, 0, 0, 0, 0, 0, 0, 0, 0, 0, 0, 0, 0, 0, 0, 0, 0, 0, 0, 0, 0], [45, 48, 46, 50, 37, 39, 38, 43, 32, 35, 50, 44, 35, 49, 34, 48, 38, 35, 49, 42, 38, 48, 30, 38, 46, 50, 40, 30, 30, 47, 30, 41, 50, 40, 38, 35, 40, 47, 30, 30, 32, 31, 30, 34, 40, 32, 31, 39, 34, 50], [49, 45, 48, 48, 45, 43, 48, 36, 48, 32, 32, 34, 45, 45, 30, 43, 39, 43, 42, 44, 33, 46, 42, 49, 48, 37, 37, 33, 37, 43, 34, 47, 40, 36, 42, 38, 32, 37, 39, 30, 40, 43, 44, 30, 37, 46, 46, 49, 31, 37], [31, 32, 36, 45, 39, 35, 34, 47, 35, 46, 44, 40, 42, 44, 37, 37, 35, 31, 36, 48, 50, 37, 39, 36, 40, 49, 31, 50, 39, 37, 33, 50, 43, 33, 49, 42, 50, 49, 42, 45, 34, 40, 32, 36, 42, 39, 48, 38, 38, 47], [39, 42, 35, 46, 47, 45, 40, 38, 40, 50, 48, 37, 38, 46, 42, 48, 49, 31, 36, 39, 49, 44, 46, 43, 31, 31, 34, 48, 44, 36, 49, 35, 33, 45, 41, 45, 35, 47, 35, 31, 41, 41, 33, 34, 37, 38, 50, 36, 40, 35], [46, 40, 43, 35, 34, 46, 50, 35, 34, 44, 46, 40, 39, 38, 30, 47, 46, 44, 33, 50, 42, 38, 49, 30, 46, 36, 40, 38, 30, 35, 47, 35, 43, 43, 44, 35, 46, 40, 46, 40, 32, 36, 48, 36, 44, 38, 33, 41, 35, 34]], [[0, 0, 0, 0, 0, 0, 0, 0, 0, 0, 0, 0, 0, 0, 0, 0, 0, 0, 0, 0, 0, 0, 0, 0, 0, 0, 0, 0, 0, 0, 0, 0, 0, 0, 0, 0, 0, 0, 0, 0, 0, 0, 0, 0, 0, 0, 0, 0, 0, 0], [0, 0, 0, 0, 0, 0, 0, 0, 0, 0, 0, 0, 0, 0, 0, 0, 0, 0, 0, 0, 0, 0, 0, 0, 0, 0, 0, 0, 0, 0, 0, 0, 0, 0, 0, 0, 0, 0, 0, 0, 0, 0, 0, 0, 0, 0, 0, 0, 0, 0], [0, 0, 0, 0, 0, 0, 0, 0, 0, 0, 0, 0, 0, 0, 0, 0, 0, 0, 0, 0, 0, 0, 0, 0, 0, 0, 0, 0, 0, 0, 0, 0, 0, 0, 0, 0, 0, 0, 0, 0, 0, 0, 0, 0, 0, 0, 0, 0, 0, 0], [0, 0, 0, 0, 0, 0, 0, 0, 0, 0, 0, 0, 0, 0, 0, 0, 0, 0, 0, 0, 0, 0, 0, 0, 0, 0, 0, 0, 0, 0, 0, 0, 0, 0, 0, 0, 0, 0, 0, 0, 0, 0, 0, 0, 0, 0, 0, 0, 0, 0], [0, 0, 0, 0, 0, 0, 0, 0, 0, 0, 0, 0, 0, 0, 0, 0, 0, 0, 0, 0, 0, 0, 0, 0, 0, 0, 0, 0, 0, 0, 0, 0, 0, 0, 0, 0, 0, 0, 0, 0, 0, 0, 0, 0, 0, 0, 0, 0, 0, 0], [0, 0, 0, 0, 0, 0, 0, 0, 0, 0, 0, 0, 0, 0, 0, 0, 0, 0, 0, 0, 0, 0, 0, 0, 0, 0, 0, 0, 0, 0, 0, 0, 0, 0, 0, 0, 0, 0, 0, 0, 0, 0, 0, 0, 0, 0, 0, 0, 0, 0], [40, 34, 41, 30, 50, 33, 36, 46, 50, 47, 42, 39, 34, 40, 41, 47, 34, 45, 31, 38, 37, 50, 42, 37, 45, 36, 35, 39, 39, 41, 31, 42, 44, 44, 34, 31, 50, 43, 33, 41, 35, 49, 44, 32, 40, 35, 33, 46, 46, 34], [42, 32, 45, 39, 48, 43, 30, 36, 50, 42, 35, 35, 31, 32, 31, 48, 49, 41, 44, 41, 38, 37, 41, 34, 40, 37, 37, 43, 40, 40, 43, 34, 34, 48, 42, 34, 35, 40, 47, 46, 50, 31, 39, 36, 43, 45, 41, 44, 50, 34], [50, 31, 34, 47, 45, 46, 47, 36, 42, 44, 38, 34, 43, 48, 40, 41, 34, 32, 32, 32, 44, 47, 46, 50, 30, 49, 45, 34, 43, 39, 35, 40, 31, 39, 50, 37, 32, 45, 30, 49, 39, 48, 48, 36, 43, 45, 40, 48, 37, 35], [40, 46, 31, 42, 45, 43, 35, 41, 31, 36, 47, 31, 40, 37, 48, 48, 38, 33, 43, 48, 39, 36, 48, 48, 37, 42, 45, 43, 33, 36, 31, 33, 33, 31, 41, 40, 45, 36, 40, 32, 47, 43, 38, 30, 40, 34, 47, 31, 41, 42]], [[0, 0, 0, 0, 0, 0, 0, 0, 0, 0, 0, 0, 0, 0, 0, 0, 0, 0, 0, 0, 0, 0, 0, 0, 0, 0, 0, 0, 0, 0, 0, 0, 0, 0, 0, 0, 0, 0, 0, 0, 0, 0, 0, 0, 0, 0, 0, 0, 0, 0], [0, 0, 0, 0, 0, 0, 0, 0, 0, 0, 0, 0, 0, 0, 0, 0, 0, 0, 0, 0, 0, 0, 0, 0, 0, 0, 0, 0, 0, 0, 0, 0, 0, 0, 0, 0, 0, 0, 0, 0, 0, 0, 0, 0, 0, 0, 0, 0, 0, 0], [0, 0, 0, 0, 0, 0, 0, 0, 0, 0, 0, 0, 0, 0, 0, 0, 0, 0, 0, 0, 0, 0, 0, 0, 0, 0, 0, 0, 0, 0, 0, 0, 0, 0, 0, 0, 0, 0, 0, 0, 0, 0, 0, 0, 0, 0, 0, 0, 0, 0], [0, 0, 0, 0, 0, 0, 0, 0, 0, 0, 0, 0, 0, 0, 0, 0, 0, 0, 0, 0, 0, 0, 0, 0, 0, 0, 0, 0, 0, 0, 0, 0, 0, 0, 0, 0, 0, 0, 0, 0, 0, 0, 0, 0, 0, 0, 0, 0, 0, 0], [0, 0, 0, 0, 0, 0, 0, 0, 0, 0, 0, 0, 0, 0, 0, 0, 0, 0, 0, 0, 0, 0, 0, 0, 0, 0, 0, 0, 0, 0, 0, 0, 0, 0, 0, 0, 0, 0, 0, 0, 0, 0, 0, 0, 0, 0, 0, 0, 0, 0], [0, 0, 0, 0, 0, 0, 0, 0, 0, 0, 0, 0, 0, 0, 0, 0, 0, 0, 0, 0, 0, 0, 0, 0, 0, 0, 0, 0, 0, 0, 0, 0, 0, 0, 0, 0, 0, 0, 0, 0, 0, 0, 0, 0, 0, 0, 0, 0, 0, 0], [0, 0, 0, 0, 0, 0, 0, 0, 0, 0, 0, 0, 0, 0, 0, 0, 0, 0, 0, 0, 0, 0, 0, 0, 0, 0, 0, 0, 0, 0, 0, 0, 0, 0, 0, 0, 0, 0, 0, 0, 0, 0, 0, 0, 0, 0, 0, 0, 0, 0], [32, 37, 40, 30, 34, 43, 33, 31, 33, 30, 32, 40, 47, 30, 39, 48, 38, 33, 49, 35, 38, 37, 39, 40, 46, 42, 47, 43, 30, 32, 41, 47, 39, 48, 31, 34, 48, 33, 47, 44, 33, 37, 38, 37, 41, 30, 44, 30, 46, 34], [45, 40, 30, 43, 47, 46, 33, 31, 30, 43, 32, 49, 40, 47, 32, 35, 37, 37, 35, 43, 34, 32, 47, 49, 41, 48, 42, 49, 38, 42, 34, 42, 47, 41, 39, 50, 44, 43, 45, 50, 36, 42, 44, 33, 48, 33, 43, 47, 32, 47], [46, 45, 36, 47, 50, 44, 33, 48, 47, 40, 47, 47, 36, 46, 37, 46, 33, 36, 33, 46, 42, 42, 49, 46, 34, 37, 36, 47, 38, 38, 41, 35, 39, 43, 46, 36, 31, 48, 38, 41, 39, 40, 38, 38, 46, 31, 49, 33, 45, 37]], [[0, 0, 0, 0, 0, 0, 0, 0, 0, 0, 0, 0, 0, 0, 0, 0, 0, 0, 0, 0, 0, 0, 0, 0, 0, 0, 0, 0, 0, 0, 0, 0, 0, 0, 0, 0, 0, 0, 0, 0, 0, 0, 0, 0, 0, 0, 0, 0, 0, 0], [0, 0, 0, 0, 0, 0, 0, 0, 0, 0, 0, 0, 0, 0, 0, 0, 0, 0, 0, 0, 0, 0, 0, 0, 0, 0, 0, 0, 0, 0, 0, 0, 0, 0, 0, 0, 0, 0, 0, 0, 0, 0, 0, 0, 0, 0, 0, 0, 0, 0], [0, 0, 0, 0, 0, 0, 0, 0, 0, 0, 0, 0, 0, 0, 0, 0, 0, 0, 0, 0, 0, 0, 0, 0, 0, 0, 0, 0, 0, 0, 0, 0, 0, 0, 0, 0, 0, 0, 0, 0, 0, 0, 0, 0, 0, 0, 0, 0, 0, 0], [0, 0, 0, 0, 0, 0, 0, 0, 0, 0, 0, 0, 0, 0, 0, 0, 0, 0, 0, 0, 0, 0, 0, 0, 0, 0, 0, 0, 0, 0, 0, 0, 0, 0, 0, 0, 0, 0, 0, 0, 0, 0, 0, 0, 0, 0, 0, 0, 0, 0], [0, 0, 0, 0, 0, 0, 0, 0, 0, 0, 0, 0, 0, 0, 0, 0, 0, 0, 0, 0, 0, 0, 0, 0, 0, 0, 0, 0, 0, 0, 0, 0, 0, 0, 0, 0, 0, 0, 0, 0, 0, 0, 0, 0, 0, 0, 0, 0, 0, 0], [0, 0, 0, 0, 0, 0, 0, 0, 0, 0, 0, 0, 0, 0, 0, 0, 0, 0, 0, 0, 0, 0, 0, 0, 0, 0, 0, 0, 0, 0, 0, 0, 0, 0, 0, 0, 0, 0, 0, 0, 0, 0, 0, 0, 0, 0, 0, 0, 0, 0], [0, 0, 0, 0, 0, 0, 0, 0, 0, 0, 0, 0, 0, 0, 0, 0, 0, 0, 0, 0, 0, 0, 0, 0, 0, 0, 0, 0, 0, 0, 0, 0, 0, 0, 0, 0, 0, 0, 0, 0, 0, 0, 0, 0, 0, 0, 0, 0, 0, 0], [0, 0, 0, 0, 0, 0, 0, 0, 0, 0, 0, 0, 0, 0, 0, 0, 0, 0, 0, 0, 0, 0, 0, 0, 0, 0, 0, 0, 0, 0, 0, 0, 0, 0, 0, 0, 0, 0, 0, 0, 0, 0, 0, 0, 0, 0, 0, 0, 0, 0], [33, 50, 41, 32, 41, 34, 43, 49, 34, 34, 30, 36, 50, 50, 40, 45, 37, 47, 43, 49, 37, 31, 35, 33, 46, 44, 36, 37, 46, 46, 42, 33, 31, 50, 32, 30, 37, 46, 31, 45, 35, 32, 34, 37, 35, 38, 49, 46, 44, 37], [48, 47, 35, 31, 32, 30, 44, 38, 44, 43, 33, 49, 46, 37, 39, 46, 42, 45, 50, 39, 38, 38, 30, 47, 36, 43, 41, 36, 42, 47, 37, 48, 36, 38, 50, 44, 34, 48, 46, 50, 35, 43, 38, 45, 50, 46, 30, 42, 44, 31]], [[0, 0, 0, 0, 0, 0, 0, 0, 0, 0, 0, 0, 0, 0, 0, 0, 0, 0, 0, 0, 0, 0, 0, 0, 0, 0, 0, 0, 0, 0, 0, 0, 0, 0, 0, 0, 0, 0, 0, 0, 0, 0, 0, 0, 0, 0, 0, 0, 0, 0], [0, 0, 0, 0, 0, 0, 0, 0, 0, 0, 0, 0, 0, 0, 0, 0, 0, 0, 0, 0, 0, 0, 0, 0, 0, 0, 0, 0, 0, 0, 0, 0, 0, 0, 0, 0, 0, 0, 0, 0, 0, 0, 0, 0, 0, 0, 0, 0, 0, 0], [0, 0, 0, 0, 0, 0, 0, 0, 0, 0, 0, 0, 0, 0, 0, 0, 0, 0, 0, 0, 0, 0, 0, 0, 0, 0, 0, 0, 0, 0, 0, 0, 0, 0, 0, 0, 0, 0, 0, 0, 0, 0, 0, 0, 0, 0, 0, 0, 0, 0], [0, 0, 0, 0, 0, 0, 0, 0, 0, 0, 0, 0, 0, 0, 0, 0, 0, 0, 0, 0, 0, 0, 0, 0, 0, 0, 0, 0, 0, 0, 0, 0, 0, 0, 0, 0, 0, 0, 0, 0, 0, 0, 0, 0, 0, 0, 0, 0, 0, 0], [0, 0, 0, 0, 0, 0, 0, 0, 0, 0, 0, 0, 0, 0, 0, 0, 0, 0, 0, 0, 0, 0, 0, 0, 0, 0, 0, 0, 0, 0, 0, 0, 0, 0, 0, 0, 0, 0, 0, 0, 0, 0, 0, 0, 0, 0, 0, 0, 0, 0], [0, 0, 0, 0, 0, 0, 0, 0, 0, 0, 0, 0, 0, 0, 0, 0, 0, 0, 0, 0, 0, 0, 0, 0, 0, 0, 0, 0, 0, 0, 0, 0, 0, 0, 0, 0, 0, 0, 0, 0, 0, 0, 0, 0, 0, 0, 0, 0, 0, 0], [0, 0, 0, 0, 0, 0, 0, 0, 0, 0, 0, 0, 0, 0, 0, 0, 0, 0, 0, 0, 0, 0, 0, 0, 0, 0, 0, 0, 0, 0, 0, 0, 0, 0, 0, 0, 0, 0, 0, 0, 0, 0, 0, 0, 0, 0, 0, 0, 0, 0], [0, 0, 0, 0, 0, 0, 0, 0, 0, 0, 0, 0, 0, 0, 0, 0, 0, 0, 0, 0, 0, 0, 0, 0, 0, 0, 0, 0, 0, 0, 0, 0, 0, 0, 0, 0, 0, 0, 0, 0, 0, 0, 0, 0, 0, 0, 0, 0, 0, 0], [0, 0, 0, 0, 0, 0, 0, 0, 0, 0, 0, 0, 0, 0, 0, 0, 0, 0, 0, 0, 0, 0, 0, 0, 0, 0, 0, 0, 0, 0, 0, 0, 0, 0, 0, 0, 0, 0, 0, 0, 0, 0, 0, 0, 0, 0, 0, 0, 0, 0], [47, 37, 41, 30, 36, 33, 33, 47, 39, 50, 31, 37, 34, 45, 36, 37, 50, 40, 34, 35, 31, 46, 39, 32, 50, 47, 42, 45, 44, 30, 49, 43, 31, 31, 41, 46, 32, 40, 41, 39, 35, 47, 34, 40, 33, 49, 50, 32, 40, 44]], [[0, 0, 0, 0, 0, 0, 0, 0, 0, 0, 0, 0, 0, 0, 0, 0, 0, 0, 0, 0, 0, 0, 0, 0, 0, 0, 0, 0, 0, 0, 0, 0, 0, 0, 0, 0, 0, 0, 0, 0, 0, 0, 0, 0, 0, 0, 0, 0, 0, 0], [0, 0, 0, 0, 0, 0, 0, 0, 0, 0, 0, 0, 0, 0, 0, 0, 0, 0, 0, 0, 0, 0, 0, 0, 0, 0, 0, 0, 0, 0, 0, 0, 0, 0, 0, 0, 0, 0, 0, 0, 0, 0, 0, 0, 0, 0, 0, 0, 0, 0], [0, 0, 0, 0, 0, 0, 0, 0, 0, 0, 0, 0, 0, 0, 0, 0, 0, 0, 0, 0, 0, 0, 0, 0, 0, 0, 0, 0, 0, 0, 0, 0, 0, 0, 0, 0, 0, 0, 0, 0, 0, 0, 0, 0, 0, 0, 0, 0, 0, 0], [0, 0, 0, 0, 0, 0, 0, 0, 0, 0, 0, 0, 0, 0, 0, 0, 0, 0, 0, 0, 0, 0, 0, 0, 0, 0, 0, 0, 0, 0, 0, 0, 0, 0, 0, 0, 0, 0, 0, 0, 0, 0, 0, 0, 0, 0, 0, 0, 0, 0], [0, 0, 0, 0, 0, 0, 0, 0, 0, 0, 0, 0, 0, 0, 0, 0, 0, 0, 0, 0, 0, 0, 0, 0, 0, 0, 0, 0, 0, 0, 0, 0, 0, 0, 0, 0, 0, 0, 0, 0, 0, 0, 0, 0, 0, 0, 0, 0, 0, 0], [0, 0, 0, 0, 0, 0, 0, 0, 0, 0, 0, 0, 0, 0, 0, 0, 0, 0, 0, 0, 0, 0, 0, 0, 0, 0, 0, 0, 0, 0, 0, 0, 0, 0, 0, 0, 0, 0, 0, 0, 0, 0, 0, 0, 0, 0, 0, 0, 0, 0], [0, 0, 0, 0, 0, 0, 0, 0, 0, 0, 0, 0, 0, 0, 0, 0, 0, 0, 0, 0, 0, 0, 0, 0, 0, 0, 0, 0, 0, 0, 0, 0, 0, 0, 0, 0, 0, 0, 0, 0, 0, 0, 0, 0, 0, 0, 0, 0, 0, 0], [0, 0, 0, 0, 0, 0, 0, 0, 0, 0, 0, 0, 0, 0, 0, 0, 0, 0, 0, 0, 0, 0, 0, 0, 0, 0, 0, 0, 0, 0, 0, 0, 0, 0, 0, 0, 0, 0, 0, 0, 0, 0, 0, 0, 0, 0, 0, 0, 0, 0], [0, 0, 0, 0, 0, 0, 0, 0, 0, 0, 0, 0, 0, 0, 0, 0, 0, 0, 0, 0, 0, 0, 0, 0, 0, 0, 0, 0, 0, 0, 0, 0, 0, 0, 0, 0, 0, 0, 0, 0, 0, 0, 0, 0, 0, 0, 0, 0, 0, 0], [0, 0, 0, 0, 0, 0, 0, 0, 0, 0, 0, 0, 0, 0, 0, 0, 0, 0, 0, 0, 0, 0, 0, 0, 0, 0, 0, 0, 0, 0, 0, 0, 0, 0, 0, 0, 0, 0, 0, 0, 0, 0, 0, 0, 0, 0, 0, 0, 0, 0]]];

q = [[[17], [7], [7], [24], [12], [13], [6], [11], [6], [17], [12], [8], [16], [24], [24], [12], [19], [16], [15], [23], [17], [9], [9], [7], [14], [15], [20], [11], [18], [19], [14], [18], [20], [15], [13], [14], [6], [18], [12], [8], [20], [10], [7], [7], [10], [25], [20], [14], [9], [17]], [[10], [15], [13], [21], [22], [13], [15], [7], [20], [13], [16], [24], [25], [7], [12], [19], [24], [6], [15], [6], [23], [21], [5], [21], [21], [11], [15], [11], [23], [10], [23], [19], [18], [14], [14], [5], [23], [24], [21], [21], [5], [14], [20], [20], [6], [9], [15], [23], [16], [10]], [[19], [8], [9], [19], [15], [19], [12], [8], [19], [6], [23], [25], [22], [13], [21], [7], [24], [10], [11], [17], [9], [20], [25], [20], [15], [21], [10], [23], [24], [6], [6], [6], [22], [17], [9], [11], [9], [18], [8], [8], [15], [24], [18], [7], [9], [5], [18], [5], [7], [20]], [[19], [10], [7], [8], [22], [5], [16], [23], [9], [17], [25], [17], [7], [23], [17], [16], [20], [11], [22], [20], [16], [15], [15], [14], [19], [10], [19], [11], [24], [10], [15], [21], [22], [24], [8], [12], [15], [18], [18], [21], [5], [13], [20], [7], [10], [18], [10], [25], [18], [25]], [[17], [14], [13], [19], [24], [22], [11], [23], [22], [24], [20], [18], [13], [7], [18], [5], [24], [15], [8], [19], [23], [15], [20], [5], [11], [11], [12], [7], [15], [16], [21], [15], [11], [22], [19], [7], [14], [14], [20], [6], [11], [19], [16], [14], [11], [9], [25], [11], [15], [6]], [[13], [18], [16], [20], [8], [21], [5], [21], [9], [18], [7], [21], [24], [16], [23], [25], [15], [22], [23], [8], [5], [14], [19], [16], [23], [18], [6], [14], [15], [7], [5], [21], [23], [15], [12], [21], [13], [7], [20], [10], [18], [19], [19], [18], [23], [5], [11], [13], [18], [14]], [[13], [11], [9], [6], [9], [14], [10], [21], [9], [9], [18], [22], [11], [13], [18], [7], [11], [17], [6], [15], [21], [5], [10], [16], [22], [18], [13], [13], [5], [16], [11], [8], [17], [12], [5], [9], [12], [11], [22], [12], [8], [23], [19], [7], [11], [12], [19], [24], [8], [18]], [[15], [21], [9], [8], [15], [8], [10], [17], [19], [22], [25], [14], [7], [11], [21], [13], [25], [18], [13], [24], [5], [6], [12], [7], [8], [9], [13], [15], [22], [18], [11], [8], [24], [7], [7], [20], [6], [22], [21], [14], [9], [11], [17], [12], [9], [8], [5], [10], [15], [12]], [[20], [8], [9], [13], [18], [16], [25], [9], [16], [7], [10], [20], [23], [24], [13], [20], [16], [18], [18], [15], [18], [9], [19], [15], [19], [6], [14], [7], [25], [12], [20], [15], [17], [15], [24], [9], [24], [7], [12], [24], [6], [22], [20], [23], [19], [15], [20], [11], [14], [21]], [[5], [16], [7], [6], [13], [24], [16], [17], [9], [15], [8], [17], [20], [18], [9], [16], [21], [24], [14], [22], [23], [19], [9], [11], [11], [5], [8], [24], [12], [22], [20], [23], [14], [19], [5], [14], [7], [23], [12], [22], [9], [19], [8], [21], [13], [18], [19], [6], [6], [21]]];
Q = [[67], [70], [77], [74], [71], [56], [62], [57], [63], [60]];
